WARNING: for repeatability, setting FPU to use double precision
============================[ Problem Statistics ]=============================
|                                                                             |
|  Number of variables:           100                                         |
|  Number of clauses:             449                                         |
|  Parse time:                   0.00 s                                       |
|  Eliminated clauses:           0.00 Mb                                      |
|  Simplification time:          0.00 s                                       |
|                                                                             |
============================[ Search Statistics ]==============================
| Conflicts |          ORIGINAL         |          LEARNT          | Progress |
|           |    Vars  Clauses Literals |    Limit  Clauses Lit/Cl |          |
===============================================================================
|       100 |      99      446     1343 |      163      100      7 |  0.010 % |
===============================================================================
restarts              : 2
conflicts             : 197            (68474 /sec)
decisions             : 260            (0.00 % random) (90372 /sec)
propagations          : 4439           (1542927 /sec)
conflict literals     : 1483           (9.79 % deleted)
Memory used           : 13.00 MB
CPU time              : 0.002877 s

SATISFIABLE
